\ENCODING=ISO-8859-1
\Problem name: SUFL_5_5_0

Minimize
 obj: 30 x1#0 + 30 x2#1 + 30 x3#2 + 30 x4#3 + 30 x5#4 + _eta#5
Subject To
 c_g_1: x1#0 + x2#1 + x3#2 + x4#3 + x5#4 >= 1
Bounds
 0 <= x1#0 <= 1
 0 <= x2#1 <= 1
 0 <= x3#2 <= 1
 0 <= x4#3 <= 1
 0 <= x5#4 <= 1
Binaries
 x1#0  x2#1  x3#2  x4#3  x5#4 
End
